# Objective value = 1.2464433817011304e+03
x[S1,C1,P1,1] 0
x[S1,C1,P1,2] 0
x[S1,C1,P1,3] 0
x[S1,C1,P1,4] 0
x[S1,C1,P1,5] 0
x[S1,C1,P1,6] 0
x[S1,C1,P1,7] 0
x[S1,C1,P1,8] 0
x[S1,C1,P1,9] 0
x[S1,C1,P1,10] 0
x[S1,C1,P1,11] 0
x[S1,C1,P1,12] 0
x[S1,C1,P1,13] 0
x[S1,C1,P1,14] 0
x[S1,C1,P1,15] 0
x[S1,C1,P1,16] 0
x[S1,C1,P1,17] 0
x[S1,C1,P1,18] 0
x[S1,C1,P1,19] 0
x[S1,C2,P1,1] 0
x[S1,C2,P1,2] 4.8285106382978622e+00
x[S1,C2,P1,3] 6.1276595744680860e+00
x[S1,C2,P1,4] 0
x[S1,C2,P1,5] 0
x[S1,C2,P1,6] 0
x[S1,C2,P1,7] 0
x[S1,C2,P1,8] 0
x[S1,C2,P1,9] 0
x[S1,C2,P1,10] 6.1276595744680877e+00
x[S1,C2,P1,11] 0
x[S1,C2,P1,12] 0
x[S1,C2,P1,13] 0
x[S1,C2,P1,14] 0
x[S1,C2,P1,15] 0
x[S1,C2,P1,16] 0
x[S1,C2,P1,17] 0
x[S1,C2,P1,18] 0
x[S1,C2,P1,19] 0
x[S1,C3,P1,1] 0
x[S1,C3,P1,2] 9.1914893617021374e+00
x[S1,C3,P1,3] 9.1914893617021409e+00
x[S1,C3,P1,4] 0
x[S1,C3,P1,5] 0
x[S1,C3,P1,6] 0
x[S1,C3,P1,7] 0
x[S1,C3,P1,8] 0
x[S1,C3,P1,9] 0
x[S1,C3,P1,10] 1.2255319148936174e+01
x[S1,C3,P1,11] 0
x[S1,C3,P1,12] 0
x[S1,C3,P1,13] 0
x[S1,C3,P1,14] 0
x[S1,C3,P1,15] 0
x[S1,C3,P1,16] 0
x[S1,C3,P1,17] 0
x[S1,C3,P1,18] 0
x[S1,C3,P1,19] 0
x[S2,D1,P1,1] 0
x[S2,D1,P1,2] 0
x[S2,D1,P1,3] 0
x[S2,D1,P1,4] 0
x[S2,D1,P1,5] 0
x[S2,D1,P1,6] 0
x[S2,D1,P1,7] 0
x[S2,D1,P1,8] 0
x[S2,D1,P1,9] 0
x[S2,D1,P1,10] 0
x[S2,D1,P1,11] 0
x[S2,D1,P1,12] 0
x[S2,D1,P1,13] 0
x[S2,D1,P1,14] 0
x[S2,D1,P1,15] 0
x[S2,D1,P1,16] 0
x[S2,D1,P1,17] 0
x[S2,D1,P1,18] 0
x[S2,D1,P1,19] 0
x[S2,D2,P1,1] 0
x[S2,D2,P1,2] 0
x[S2,D2,P1,3] 0
x[S2,D2,P1,4] 0
x[S2,D2,P1,5] 0
x[S2,D2,P1,6] 0
x[S2,D2,P1,7] 0
x[S2,D2,P1,8] 0
x[S2,D2,P1,9] 0
x[S2,D2,P1,10] 0
x[S2,D2,P1,11] 0
x[S2,D2,P1,12] 0
x[S2,D2,P1,13] 0
x[S2,D2,P1,14] 0
x[S2,D2,P1,15] 0
x[S2,D2,P1,16] 0
x[S2,D2,P1,17] 0
x[S2,D2,P1,18] 0
x[S2,D2,P1,19] 0
x[S2,C1,P1,1] 0
x[S2,C1,P1,2] 1.4908979814275625e+00
x[S2,C1,P1,3] 1.3699102018572418e+01
x[S2,C1,P1,4] 1.1202199746290267e+01
x[S2,C1,P1,5] 0
x[S2,C1,P1,6] 1.0183400761129045e+01
x[S2,C1,P1,7] 7.0386684889305569e+00
x[S2,C1,P1,8] 6.1276595744680860e+00
x[S2,C1,P1,9] 1.3141873862014226e+01
x[S2,C1,P1,10] 8.7203671448008
x[S2,C1,P1,11] 1.1171660844734472e+01
x[S2,C1,P1,12] 1.0541695776325839e+00
x[S2,C1,P1,13] 0
x[S2,C1,P1,14] 0
x[S2,C1,P1,15] 8.9595419847328339e-01
x[S2,C1,P1,16] 1.0234045801526714e+01
x[S2,C1,P1,17] 0
x[S2,C1,P1,18] 0
x[S2,C1,P1,19] 0
x[S2,C2,P1,1] 10.7
x[S2,C2,P1,2] 6.9346243052687271e+00
x[S2,C2,P1,3] 0
x[S2,C2,P1,4] 3.7492054819651943e+00
x[S2,C2,P1,5] 9.1734639147016264e+00
x[S2,C2,P1,6] 5.9014045667398563e-01
x[S2,C2,P1,7] 0
x[S2,C2,P1,8] 9.1914893617021285e+00
x[S2,C2,P1,9] 0
x[S2,C2,P1,10] 6.1276595744680860e+00
x[S2,C2,P1,11] 4.1477804024094471e+00
x[S2,C2,P1,12] 0
x[S2,C2,P1,13] 8.6718067155767873e+00
x[S2,C2,P1,14] 0
x[S2,C2,P1,15] 0
x[S2,C2,P1,16] 0
x[S2,C2,P1,17] 0
x[S2,C2,P1,18] 0
x[S2,C2,P1,19] 0
x[S2,C3,P1,1] 0
x[S2,C3,P1,2] 2.27447771330371
x[S2,C3,P1,3] 0
x[S2,C3,P1,4] 0
x[S2,C3,P1,5] 3.0638297872340430e+00
x[S2,C3,P1,6] 5.27645878219697
x[S2,C3,P1,7] 4.2528796145324215e+00
x[S2,C3,P1,8] 0
x[S2,C3,P1,9] 2.9081261379857750e+00
x[S2,C3,P1,10] 1.0933102904467726e+00
x[S2,C3,P1,11] 7.3055875285608129e-01
x[S2,C3,P1,12] 1.1859507857614426e+01
x[S2,C3,P1,13] 3.0638297872340430e+00
x[S2,C3,P1,14] 0
x[S2,C3,P1,15] 1.1862769205782026e+01
x[S2,C3,P1,16] 5.8159541984732872e+00
x[S2,C3,P1,17] 0
x[S2,C3,P1,18] 0
x[S2,C3,P1,19] 0
x[D1,C1,P1,1] 0
x[D1,C1,P1,2] 0
x[D1,C1,P1,3] 0
x[D1,C1,P1,4] 0
x[D1,C1,P1,5] 0
x[D1,C1,P1,6] 0
x[D1,C1,P1,7] 0
x[D1,C1,P1,8] 0
x[D1,C1,P1,9] 0
x[D1,C1,P1,10] 0
x[D1,C1,P1,11] 0
x[D1,C1,P1,12] 0
x[D1,C1,P1,13] 0
x[D1,C1,P1,14] 0
x[D1,C1,P1,15] 0
x[D1,C1,P1,16] 0
x[D1,C1,P1,17] 0
x[D1,C1,P1,18] 0
x[D1,C1,P1,19] 0
x[D1,C2,P1,1] 0
x[D1,C2,P1,2] 0
x[D1,C2,P1,3] 0
x[D1,C2,P1,4] 0
x[D1,C2,P1,5] 0
x[D1,C2,P1,6] 0
x[D1,C2,P1,7] 0
x[D1,C2,P1,8] 0
x[D1,C2,P1,9] 0
x[D1,C2,P1,10] 0
x[D1,C2,P1,11] 0
x[D1,C2,P1,12] 0
x[D1,C2,P1,13] 0
x[D1,C2,P1,14] 0
x[D1,C2,P1,15] 0
x[D1,C2,P1,16] 0
x[D1,C2,P1,17] 0
x[D1,C2,P1,18] 0
x[D1,C2,P1,19] 0
x[D1,C3,P1,1] 0
x[D1,C3,P1,2] 0
x[D1,C3,P1,3] 0
x[D1,C3,P1,4] 0
x[D1,C3,P1,5] 0
x[D1,C3,P1,6] 0
x[D1,C3,P1,7] 0
x[D1,C3,P1,8] 0
x[D1,C3,P1,9] 0
x[D1,C3,P1,10] 0
x[D1,C3,P1,11] 0
x[D1,C3,P1,12] 0
x[D1,C3,P1,13] 0
x[D1,C3,P1,14] 0
x[D1,C3,P1,15] 0
x[D1,C3,P1,16] 0
x[D1,C3,P1,17] 0
x[D1,C3,P1,18] 0
x[D1,C3,P1,19] 0
x[D2,C1,P1,1] 0
x[D2,C1,P1,2] 0
x[D2,C1,P1,3] 0
x[D2,C1,P1,4] 0
x[D2,C1,P1,5] 0
x[D2,C1,P1,6] 0
x[D2,C1,P1,7] 0
x[D2,C1,P1,8] 0
x[D2,C1,P1,9] 0
x[D2,C1,P1,10] 0
x[D2,C1,P1,11] 0
x[D2,C1,P1,12] 0
x[D2,C1,P1,13] 0
x[D2,C1,P1,14] 0
x[D2,C1,P1,15] 0
x[D2,C1,P1,16] 0
x[D2,C1,P1,17] 0
x[D2,C1,P1,18] 0
x[D2,C1,P1,19] 0
x[D2,C3,P1,1] 0
x[D2,C3,P1,2] 0
x[D2,C3,P1,3] 0
x[D2,C3,P1,4] 0
x[D2,C3,P1,5] 0
x[D2,C3,P1,6] 0
x[D2,C3,P1,7] 0
x[D2,C3,P1,8] 0
x[D2,C3,P1,9] 0
x[D2,C3,P1,10] 0
x[D2,C3,P1,11] 0
x[D2,C3,P1,12] 0
x[D2,C3,P1,13] 0
x[D2,C3,P1,14] 0
x[D2,C3,P1,15] 0
x[D2,C3,P1,16] 0
x[D2,C3,P1,17] 0
x[D2,C3,P1,18] 0
x[D2,C3,P1,19] 0
r[S2,P1,1] 1
r[S1,P1,1] 0
r[S2,P1,2] 1
r[S1,P1,2] 1
r[S2,P1,3] 1
r[S1,P1,3] 1
r[S2,P1,4] 1
r[S1,P1,4] 0
r[S2,P1,5] 1
r[S1,P1,5] 0
r[S2,P1,6] 1
r[S1,P1,6] 0
r[S2,P1,7] 1
r[S1,P1,7] 0
r[S2,P1,8] 1
r[S1,P1,8] 0
r[S2,P1,9] 1
r[S1,P1,9] 0
r[S2,P1,10] 1
r[S1,P1,10] 1
r[S2,P1,11] 1
r[S1,P1,11] 0
r[S2,P1,12] 1
r[S1,P1,12] 0
r[S2,P1,13] 1
r[S1,P1,13] 0
r[S2,P1,14] 0
r[S1,P1,14] 0
r[S2,P1,15] 1
r[S1,P1,15] 0
r[S2,P1,16] 1
r[S1,P1,16] 0
r[S2,P1,17] 0
r[S1,P1,17] 0
r[S2,P1,18] 0
r[S1,P1,18] 0
r[S2,P1,19] 0
r[S1,P1,19] 0
l[S1,C1] 0
l[S1,C2] 1
l[S1,C3] 1
l[S2,D1] 0
l[S2,D2] 0
l[S2,C1] 1
l[S2,C2] 1
l[S2,C3] 1
l[D1,C1] 0
l[D1,C2] 0
l[D1,C3] 0
l[D2,C1] 0
l[D2,C3] 0
k[S1,C1,1] 0
k[S1,C1,2] 0
k[S1,C1,3] 0
k[S1,C1,4] 0
k[S1,C1,5] 0
k[S1,C1,6] 0
k[S1,C1,7] 0
k[S1,C1,8] 0
k[S1,C1,9] 0
k[S1,C1,10] 0
k[S1,C1,11] 0
k[S1,C1,12] 0
k[S1,C1,13] 0
k[S1,C1,14] 0
k[S1,C1,15] 0
k[S1,C1,16] 0
k[S1,C1,17] 0
k[S1,C1,18] 0
k[S1,C1,19] 0
k[S1,C2,1] 0
k[S1,C2,2] 2
k[S1,C2,3] 2
k[S1,C2,4] 0
k[S1,C2,5] 0
k[S1,C2,6] 0
k[S1,C2,7] 0
k[S1,C2,8] 0
k[S1,C2,9] 0
k[S1,C2,10] 2
k[S1,C2,11] 0
k[S1,C2,12] 0
k[S1,C2,13] 0
k[S1,C2,14] 0
k[S1,C2,15] 0
k[S1,C2,16] 0
k[S1,C2,17] 0
k[S1,C2,18] 0
k[S1,C2,19] 0
k[S1,C3,1] 0
k[S1,C3,2] 3
k[S1,C3,3] 3
k[S1,C3,4] 0
k[S1,C3,5] 0
k[S1,C3,6] 0
k[S1,C3,7] 0
k[S1,C3,8] 0
k[S1,C3,9] 0
k[S1,C3,10] 4.0000000000000009e+00
k[S1,C3,11] 0
k[S1,C3,12] 0
k[S1,C3,13] 0
k[S1,C3,14] 0
k[S1,C3,15] 0
k[S1,C3,16] 0
k[S1,C3,17] 0
k[S1,C3,18] 0
k[S1,C3,19] 0
k[S2,D1,1] 0
k[S2,D1,2] 0
k[S2,D1,3] 0
k[S2,D1,4] 0
k[S2,D1,5] 0
k[S2,D1,6] 0
k[S2,D1,7] 0
k[S2,D1,8] 0
k[S2,D1,9] 0
k[S2,D1,10] 0
k[S2,D1,11] 0
k[S2,D1,12] 0
k[S2,D1,13] 0
k[S2,D1,14] 0
k[S2,D1,15] 0
k[S2,D1,16] 0
k[S2,D1,17] 0
k[S2,D1,18] 0
k[S2,D1,19] 0
k[S2,D2,1] 0
k[S2,D2,2] 0
k[S2,D2,3] 0
k[S2,D2,4] 0
k[S2,D2,5] 0
k[S2,D2,6] 0
k[S2,D2,7] 0
k[S2,D2,8] 0
k[S2,D2,9] 0
k[S2,D2,10] 0
k[S2,D2,11] 0
k[S2,D2,12] 0
k[S2,D2,13] 0
k[S2,D2,14] 0
k[S2,D2,15] 0
k[S2,D2,16] 0
k[S2,D2,17] 0
k[S2,D2,18] 0
k[S2,D2,19] 0
k[S2,C1,1] 0
k[S2,C1,2] 1
k[S2,C1,3] 5
k[S2,C1,4] 4
k[S2,C1,5] 0
k[S2,C1,6] 4
k[S2,C1,7] 3
k[S2,C1,8] 2
k[S2,C1,9] 5
k[S2,C1,10] 3
k[S2,C1,11] 4
k[S2,C1,12] 1
k[S2,C1,13] 0
k[S2,C1,14] 0
k[S2,C1,15] 1
k[S2,C1,16] 4
k[S2,C1,17] 0
k[S2,C1,18] 0
k[S2,C1,19] 0
k[S2,C2,1] 4
k[S2,C2,2] 3
k[S2,C2,3] 0
k[S2,C2,4] 2
k[S2,C2,5] 3
k[S2,C2,6] 1
k[S2,C2,7] 0
k[S2,C2,8] 3
k[S2,C2,9] 0
k[S2,C2,10] 2
k[S2,C2,11] 2
k[S2,C2,12] 0
k[S2,C2,13] 3
k[S2,C2,14] 0
k[S2,C2,15] 0
k[S2,C2,16] 0
k[S2,C2,17] 0
k[S2,C2,18] 0
k[S2,C2,19] 0
k[S2,C3,1] 0
k[S2,C3,2] 1
k[S2,C3,3] 0
k[S2,C3,4] 0
k[S2,C3,5] 1
k[S2,C3,6] 2
k[S2,C3,7] 2
k[S2,C3,8] 0
k[S2,C3,9] 1
k[S2,C3,10] 1
k[S2,C3,11] 1
k[S2,C3,12] 4
k[S2,C3,13] 1
k[S2,C3,14] 0
k[S2,C3,15] 4
k[S2,C3,16] 2
k[S2,C3,17] 0
k[S2,C3,18] 0
k[S2,C3,19] 0
k[D1,C1,1] 0
k[D1,C1,2] 0
k[D1,C1,3] 0
k[D1,C1,4] 0
k[D1,C1,5] 0
k[D1,C1,6] 0
k[D1,C1,7] 0
k[D1,C1,8] 0
k[D1,C1,9] 0
k[D1,C1,10] 0
k[D1,C1,11] 0
k[D1,C1,12] 0
k[D1,C1,13] 0
k[D1,C1,14] 0
k[D1,C1,15] 0
k[D1,C1,16] 0
k[D1,C1,17] 0
k[D1,C1,18] 0
k[D1,C1,19] 0
k[D1,C2,1] 0
k[D1,C2,2] 0
k[D1,C2,3] 0
k[D1,C2,4] 0
k[D1,C2,5] 0
k[D1,C2,6] 0
k[D1,C2,7] 0
k[D1,C2,8] 0
k[D1,C2,9] 0
k[D1,C2,10] 0
k[D1,C2,11] 0
k[D1,C2,12] 0
k[D1,C2,13] 0
k[D1,C2,14] 0
k[D1,C2,15] 0
k[D1,C2,16] 0
k[D1,C2,17] 0
k[D1,C2,18] 0
k[D1,C2,19] 0
k[D1,C3,1] 0
k[D1,C3,2] 0
k[D1,C3,3] 0
k[D1,C3,4] 0
k[D1,C3,5] 0
k[D1,C3,6] 0
k[D1,C3,7] 0
k[D1,C3,8] 0
k[D1,C3,9] 0
k[D1,C3,10] 0
k[D1,C3,11] 0
k[D1,C3,12] 0
k[D1,C3,13] 0
k[D1,C3,14] 0
k[D1,C3,15] 0
k[D1,C3,16] 0
k[D1,C3,17] 0
k[D1,C3,18] 0
k[D1,C3,19] 0
k[D2,C1,1] 0
k[D2,C1,2] 0
k[D2,C1,3] 0
k[D2,C1,4] 0
k[D2,C1,5] 0
k[D2,C1,6] 0
k[D2,C1,7] 0
k[D2,C1,8] 0
k[D2,C1,9] 0
k[D2,C1,10] 0
k[D2,C1,11] 0
k[D2,C1,12] 0
k[D2,C1,13] 0
k[D2,C1,14] 0
k[D2,C1,15] 0
k[D2,C1,16] 0
k[D2,C1,17] 0
k[D2,C1,18] 0
k[D2,C1,19] 0
k[D2,C3,1] 0
k[D2,C3,2] 0
k[D2,C3,3] 0
k[D2,C3,4] 0
k[D2,C3,5] 0
k[D2,C3,6] 0
k[D2,C3,7] 0
k[D2,C3,8] 0
k[D2,C3,9] 0
k[D2,C3,10] 0
k[D2,C3,11] 0
k[D2,C3,12] 0
k[D2,C3,13] 0
k[D2,C3,14] 0
k[D2,C3,15] 0
k[D2,C3,16] 0
k[D2,C3,17] 0
k[D2,C3,18] 0
k[D2,C3,19] 0
v[S1,C1] 0
v[S1,C2] 2
v[S1,C3] 4.0000000000000009e+00
v[S2,D1] 0
v[S2,D2] 0
v[S2,C1] 5
v[S2,C2] 4
v[S2,C3] 4
v[D1,C1] 0
v[D1,C2] 0
v[D1,C3] 0
v[D2,C1] 0
v[D2,C3] 0
